\Problem name: 

Minimize
OBJROW: - var(0) + 4 var(1) + 8 var(3)
Subject To
constr(0):  var(0) + 12 var(1) -2 var(2) -12 var(3) <= -0
constr(1):  0.25000 var(0) + var(1) -0.25000 var(2) -2 var(3) <= -0
constr(2):  var(0) -4 var(1) -8 var(3) <= 1
Bounds
End
